p tw 86 218
0 1
0 67
0 84
1 28
1 29
1 30
2 3
2 4
2 24
2 30
2 54
2 67
3 4
3 51
3 53
3 73
3 74
4 50
4 78
5 6
5 7
5 48
5 76
5 77
6 7
6 47
6 75
6 79
6 83
7 64
7 65
7 66
8 9
8 10
8 18
8 49
8 56
9 10
9 13
9 14
9 15
9 16
10 17
10 69
10 70
11 12
11 39
11 41
12 38
12 42
12 45
12 71
13 14
13 15
13 16
13 49
14 15
14 16
14 69
15 16
15 23
15 56
15 70
15 72
16 17
16 18
17 18
17 69
17 70
18 49
18 56
19 20
19 52
20 21
20 68
21 22
21 23
21 24
21 68
22 23
22 24
22 28
23 24
23 56
23 70
23 72
24 30
24 54
24 67
25 26
25 27
25 53
26 27
26 73
26 80
26 82
27 50
27 51
27 52
28 29
28 30
29 30
29 55
29 84
30 54
30 67
31 32
31 33
31 37
31 58
32 33
32 35
33 36
33 40
33 59
33 60
34 35
34 36
34 37
34 62
35 36
35 37
36 37
36 40
36 59
36 60
37 58
38 39
38 40
38 42
38 45
38 71
39 40
39 41
40 59
40 60
41 42
41 43
41 44
42 43
42 44
42 45
42 71
43 44
43 85
44 46
44 57
45 46
45 71
46 57
47 48
47 75
47 79
47 83
48 76
48 77
49 56
50 51
50 52
50 78
51 52
51 53
51 73
51 74
53 73
53 74
54 55
54 67
55 84
56 70
56 72
57 68
57 71
57 72
58 59
59 60
60 61
60 62
60 63
61 62
61 63
61 81
61 82
62 63
63 66
63 77
63 79
63 80
64 65
64 66
64 75
64 76
65 66
65 83
66 77
66 79
66 80
67 84
68 71
68 72
69 70
70 72
71 72
73 74
73 80
73 82
74 78
75 76
75 79
75 83
76 77
77 79
77 80
79 80
79 83
80 82
81 82
81 85
